p tw 60 927
0 1
0 2
0 3
0 4
0 5
0 6
0 7
0 8
0 9
0 10
0 19
0 24
0 25
0 26
0 27
0 28
0 17
0 31
0 34
0 39
0 40
0 41
0 30
0 33
0 42
0 43
0 14
0 20
0 49
0 13
0 37
0 45
0 52
0 22
0 38
0 48
0 50
0 54
0 55
0 11
0 15
0 56
0 58
0 59
0 47
0 32
1 2
1 3
1 4
1 5
1 6
1 7
1 8
1 9
1 17
1 19
1 31
1 34
1 39
1 40
1 41
1 12
1 24
1 25
1 26
1 28
1 30
1 50
1 22
1 38
1 48
1 49
1 54
1 55
1 14
1 37
1 47
1 57
1 10
1 32
1 35
1 53
2 3
2 4
2 5
2 6
2 7
2 8
2 9
2 12
2 14
2 19
2 20
2 21
2 22
2 23
2 30
2 33
2 40
2 42
2 43
2 24
2 25
2 26
2 28
2 50
2 29
2 32
2 34
2 39
2 49
2 51
2 54
2 13
2 48
2 53
2 57
3 4
3 5
3 6
3 7
3 8
3 9
3 12
3 14
3 19
3 20
3 21
3 22
3 23
3 10
3 24
3 26
3 29
3 30
3 31
3 17
3 34
3 39
3 40
3 41
3 33
3 42
3 43
3 13
3 46
3 51
3 57
4 5
4 6
4 7
4 8
4 9
4 10
4 11
4 12
4 13
4 14
4 15
4 16
4 17
4 18
4 23
4 28
4 29
4 42
4 51
4 22
4 30
4 38
4 47
4 58
5 6
5 7
5 8
5 9
5 14
5 22
5 25
5 28
5 37
5 38
5 47
5 57
6 7
6 8
6 9
6 17
6 19
6 29
6 38
6 40
6 44
6 45
6 46
6 47
6 12
6 15
6 23
6 28
6 42
6 51
6 13
6 14
6 21
6 41
6 54
7 8
7 9
7 14
7 19
7 20
7 27
7 28
7 43
7 49
7 13
7 37
7 39
7 42
7 45
7 52
7 17
7 23
7 41
7 46
7 51
7 57
7 21
7 40
7 54
8 9
8 12
8 14
8 19
8 20
8 21
8 22
8 23
8 10
8 24
8 25
8 26
8 27
8 28
8 30
8 33
8 40
8 42
8 43
8 13
8 15
8 36
8 38
8 49
8 32
8 35
8 53
8 47
8 51
8 56
8 57
9 10
9 19
9 24
9 25
9 26
9 27
9 28
9 12
9 21
9 29
9 30
9 31
9 15
9 23
9 42
9 51
9 32
9 34
9 39
9 49
9 54
9 13
9 17
9 41
9 46
9 57
9 35
9 38
9 53
9 14
9 40
10 11
10 12
10 13
10 14
10 15
10 16
10 17
10 18
10 19
10 24
10 25
10 26
10 27
10 28
10 21
10 29
10 30
10 31
10 36
10 38
10 43
10 32
10 35
10 53
11 12
11 13
11 14
11 15
11 16
11 17
11 18
11 28
11 33
11 38
11 41
11 47
11 49
11 50
11 54
11 56
11 52
11 58
11 59
11 22
11 30
11 19
11 26
11 32
11 39
12 13
12 14
12 15
12 16
12 17
12 18
12 19
12 20
12 21
12 22
12 23
12 24
12 26
12 29
12 30
12 31
12 33
12 34
12 46
12 48
12 25
12 28
12 40
12 50
12 42
12 51
12 32
12 35
12 37
12 43
12 45
13 14
13 15
13 16
13 17
13 18
13 26
13 27
13 36
13 38
13 43
13 37
13 39
13 42
13 45
13 52
13 23
13 41
13 46
13 51
13 57
13 28
13 48
13 53
13 54
13 25
13 29
13 40
13 47
13 49
13 58
13 21
14 15
14 16
14 17
14 18
14 19
14 20
14 21
14 22
14 23
14 26
14 27
14 36
14 38
14 43
14 28
14 49
14 42
14 48
14 53
14 54
14 57
14 25
14 37
14 47
14 40
14 41
15 16
15 17
15 18
15 26
15 27
15 36
15 38
15 43
15 19
15 21
15 33
15 34
15 46
15 48
15 23
15 28
15 29
15 42
15 51
15 25
15 40
15 47
15 49
15 58
15 41
15 52
15 54
15 56
15 59
15 22
15 30
16 17
16 18
17 18
17 19
17 31
17 34
17 39
17 40
17 41
17 29
17 38
17 44
17 45
17 46
17 47
17 21
17 26
17 33
17 48
17 23
17 51
17 57
17 22
17 30
17 58
18 20
18 30
18 32
18 33
18 34
18 35
18 36
18 37
18 38
18 24
18 40
18 43
18 45
18 23
18 29
18 31
18 42
18 48
18 51
18 53
19 20
19 21
19 22
19 23
19 24
19 25
19 26
19 27
19 28
19 31
19 34
19 39
19 40
19 41
19 30
19 33
19 42
19 43
19 29
19 38
19 44
19 45
19 46
19 47
19 48
19 49
19 32
19 58
20 21
20 22
20 23
20 30
20 32
20 33
20 34
20 35
20 36
20 37
20 38
20 27
20 28
20 43
20 49
20 42
20 47
20 51
20 53
20 56
20 57
21 22
21 23
21 24
21 26
21 29
21 30
21 31
21 33
21 34
21 46
21 48
21 28
21 40
21 41
21 54
22 23
22 38
22 41
22 48
22 49
22 50
22 54
22 55
22 25
22 28
22 37
22 47
22 57
22 30
22 58
22 26
22 32
22 39
23 28
23 29
23 42
23 51
23 30
23 31
23 33
23 48
23 53
23 41
23 46
23 57
23 38
23 47
23 56
24 25
24 26
24 27
24 28
24 29
24 30
24 31
24 40
24 50
24 32
24 35
24 37
24 43
24 45
24 38
24 53
25 26
25 27
25 28
25 30
25 40
25 50
25 29
25 32
25 34
25 39
25 49
25 51
25 54
25 37
25 38
25 47
25 57
25 58
26 27
26 28
26 29
26 30
26 31
26 36
26 38
26 43
26 33
26 34
26 46
26 48
26 40
26 50
26 32
26 35
26 53
26 47
26 49
26 58
26 39
27 28
27 36
27 38
27 43
27 49
27 37
27 39
27 42
27 45
27 52
27 29
27 40
27 47
27 58
28 43
28 49
28 30
28 40
28 50
28 29
28 42
28 51
28 33
28 38
28 41
28 47
28 54
28 56
28 48
28 53
28 57
28 37
29 30
29 31
29 38
29 40
29 44
29 45
29 46
29 47
29 42
29 51
29 33
29 48
29 53
29 32
29 34
29 39
29 49
29 54
29 58
30 31
30 32
30 33
30 34
30 35
30 36
30 37
30 38
30 40
30 42
30 43
30 50
30 45
30 48
30 51
30 53
30 47
30 58
31 34
31 39
31 40
31 41
31 33
31 42
31 48
31 51
31 53
32 33
32 34
32 35
32 36
32 37
32 38
32 40
32 43
32 45
32 39
32 49
32 51
32 54
32 53
32 58
33 34
33 35
33 36
33 37
33 38
33 40
33 42
33 43
33 46
33 48
33 51
33 53
33 41
33 47
33 49
33 50
33 54
33 56
33 52
33 58
33 59
34 35
34 36
34 37
34 38
34 39
34 40
34 41
34 46
34 48
34 49
34 51
34 54
35 36
35 37
35 38
35 40
35 43
35 45
35 53
36 37
36 38
36 43
37 38
37 39
37 42
37 43
37 45
37 52
37 40
37 47
37 57
38 43
38 40
38 44
38 45
38 46
38 47
38 41
38 48
38 49
38 50
38 54
38 55
38 56
38 57
38 53
38 42
38 51
38 58
38 39
39 40
39 41
39 42
39 43
39 45
39 52
39 49
39 51
39 54
39 58
40 41
40 42
40 43
40 44
40 45
40 46
40 47
40 50
40 49
40 58
40 54
41 48
41 49
41 50
41 54
41 55
41 47
41 56
41 46
41 51
41 57
41 52
41 58
41 59
42 43
42 51
42 45
42 52
42 48
42 53
42 54
42 57
42 47
42 56
43 49
43 45
43 52
43 48
43 53
43 54
43 57
44 45
44 46
44 47
45 46
45 47
45 52
46 47
46 48
46 51
46 57
47 49
47 50
47 54
47 56
47 57
47 58
47 51
47 53
48 51
48 53
48 49
48 50
48 54
48 55
48 57
49 50
49 54
49 55
49 51
49 56
49 58
50 54
50 55
50 56
51 53
51 54
51 57
51 56
52 54
52 56
52 58
52 59
53 54
53 57
53 56
54 55
54 56
54 57
54 58
54 59
56 57
56 58
56 59
58 59
